Route #1: 4 27 52 8 46 34
Route #2: 35 19 54 13 57 15 5 29 45
Route #3: 43 41 42 64 22 61 21
Route #4: 37 20 60 36 47 48 30
Route #5: 16 49 24 56 23 63 1
Route #6: 2 28 62 33 6
Route #7: 51 3 44 40 12 17
Route #8: 32 50 18 55 25 9 39
Route #9: 7 53 14 59 11
Route #10: 38 31 10 58 26
Cost 817